Instance: E253-27k.dat
Class:  1
252 --- number of customers (no depot)
27 --- number of vehicles
252 --- number of items
Capacity - height - width of vehicles
  1000     40     20
Node - x - y - demand  Readytime Duetime
  0.00    0.00   0.00   0.00 0       255.00
  1.00    3.00   1.00 300.00  94.00  120.00
  2.00    3.00   3.00 300.00  16.00   43.00
  3.00    1.00   3.00 300.00 115.00  134.00
  4.00   -1.00   3.00 300.00 118.00  135.00
  5.00   -3.00   3.00 300.00  30.00   53.00
  6.00   -3.00   1.00 300.00 117.00  143.00
  7.00   -3.00  -1.00 300.00  55.00   72.00
  8.00   -3.00  -3.00 300.00 146.00  162.00
  9.00   -1.00  -3.00 300.00 141.00  158.00
 10.00    1.00  -3.00 300.00 102.00  131.00
 11.00    3.00  -3.00 300.00  29.00   46.00
 12.00    3.00  -1.00 300.00  76.00  101.00
 13.00    5.00   1.00 180.00  12.00   38.00
 14.00    5.00   3.00 180.00  28.00   47.00
 15.00    5.00   5.00 180.00  29.00   48.00
 16.00    3.00   5.00 180.00  20.00   49.00
 17.00    1.00   5.00 180.00  90.00  110.00
 18.00   -1.00   5.00 180.00 104.00  133.00
 19.00   -3.00   5.00 180.00  67.00   85.00
 20.00   -5.00   5.00 180.00  72.00   96.00
 21.00   -5.00   3.00 180.00  96.00  119.00
 22.00   -5.00   1.00 180.00  71.00  101.00
 23.00   -5.00  -1.00 180.00  42.00   59.00
 24.00   -5.00  -3.00 180.00  76.00   98.00
 25.00   -5.00  -5.00 180.00  76.00   91.00
 26.00   -3.00  -5.00 180.00 103.00  124.00
 27.00   -1.00  -5.00 180.00  80.00  105.00
 28.00    1.00  -5.00 180.00   2.00   31.00
 29.00    3.00  -5.00 180.00 129.00  153.00
 30.00    5.00  -5.00 180.00  15.00   32.00
 31.00    5.00  -3.00 180.00 177.00  199.00
 32.00    5.00  -1.00 180.00  63.00   89.00
 33.00    7.00   1.00 128.00  15.00   30.00
 34.00    7.00   3.00 128.00  13.00   36.00
 35.00    7.00   5.00 128.00 203.00  225.00
 36.00    7.00   7.00 128.00 130.00  159.00
 37.00    5.00   7.00 128.00 146.00  175.00
 38.00    3.00   7.00 128.00  24.00   40.00
 39.00    1.00   7.00 128.00  79.00  102.00
 40.00   -1.00   7.00 128.00  40.00   59.00
 41.00   -3.00   7.00 128.00 171.00  200.00
 42.00   -5.00   7.00 128.00  69.00   97.00
 43.00   -7.00   7.00 128.00 150.00  175.00
 44.00   -7.00   5.00 128.00  96.00  118.00
 45.00   -7.00   3.00 128.00 114.00  135.00
 46.00   -7.00   1.00 128.00  25.00   42.00
 47.00   -7.00  -1.00 128.00  54.00   74.00
 48.00   -7.00  -3.00 128.00 132.00  147.00
 49.00   -7.00  -5.00 128.00 147.00  166.00
 50.00   -7.00  -7.00 128.00  55.00   73.00
 51.00   -5.00  -7.00 128.00 208.00  224.00
 52.00   -3.00  -7.00 128.00 141.00  156.00
 53.00   -1.00  -7.00 128.00  18.00   39.00
 54.00    1.00  -7.00 128.00  89.00  107.00
 55.00    3.00  -7.00 128.00  15.00   36.00
 56.00    5.00  -7.00 128.00   9.00   31.00
 57.00    7.00  -7.00 128.00  87.00  110.00
 58.00    7.00  -5.00 128.00  69.00   96.00
 59.00    7.00  -3.00 128.00 108.00  130.00
 60.00    7.00  -1.00 128.00 164.00  183.00
 61.00    9.00   1.00 100.00  66.00   81.00
 62.00    9.00   3.00 100.00  78.00   95.00
 63.00    9.00   5.00 100.00  31.00   60.00
 64.00    9.00   7.00 100.00 137.00  158.00
 65.00    9.00   9.00 100.00 146.00  174.00
 66.00    7.00   9.00 100.00  81.00  110.00
 67.00    5.00   9.00 100.00  50.00   65.00
 68.00    3.00   9.00 100.00 181.00  200.00
 69.00    1.00   9.00 100.00 166.00  188.00
 70.00   -1.00   9.00 100.00  72.00   92.00
 71.00   -3.00   9.00 100.00  86.00  107.00
 72.00   -5.00   9.00 100.00 161.00  191.00
 73.00   -7.00   9.00 100.00 173.00  202.00
 74.00   -9.00   9.00 100.00  88.00  105.00
 75.00   -9.00   7.00 100.00 144.00  160.00
 76.00   -9.00   5.00 100.00 118.00  140.00
 77.00   -9.00   3.00 100.00 126.00  154.00
 78.00   -9.00   1.00 100.00  21.00   51.00
 79.00   -9.00  -1.00 100.00 136.00  164.00
 80.00   -9.00  -3.00 100.00  23.00   44.00
 81.00   -9.00  -5.00 100.00  50.00   72.00
 82.00   -9.00  -7.00 100.00 137.00  154.00
 83.00   -9.00  -9.00 100.00  26.00   44.00
 84.00   -7.00  -9.00 100.00  82.00  102.00
 85.00   -5.00  -9.00 100.00 156.00  173.00
 86.00   -3.00  -9.00 100.00 198.00  222.00
 87.00   -1.00  -9.00 100.00 158.00  181.00
 88.00    1.00  -9.00 100.00  91.00  110.00
 89.00    3.00  -9.00 100.00  11.00   31.00
 90.00    5.00  -9.00 100.00  28.00   52.00
 91.00    7.00  -9.00 100.00 145.00  171.00
 92.00    9.00  -9.00 100.00 168.00  191.00
 93.00    9.00  -7.00 100.00 169.00  184.00
 94.00    9.00  -5.00 100.00 182.00  204.00
 95.00    9.00  -3.00 100.00 194.00  210.00
 96.00    9.00  -1.00 100.00  98.00  115.00
 97.00   11.00   1.00  81.00  23.00   41.00
 98.00   11.00   3.00  81.00 136.00  151.00
 99.00   11.00   5.00  81.00 156.00  174.00
100.00   11.00   7.00  81.00 129.00  158.00
101.00   11.00   9.00  81.00 189.00  205.00
102.00   11.00  11.00  81.00 152.00  168.00
103.00    9.00  11.00  81.00 123.00  140.00
104.00    7.00  11.00  81.00 117.00  144.00
105.00    5.00  11.00  81.00  80.00  110.00
106.00    3.00  11.00  81.00 187.00  202.00
107.00    1.00  11.00  81.00 169.00  185.00
108.00   -1.00  11.00  81.00  16.00   33.00
109.00   -3.00  11.00  81.00  49.00   70.00
110.00   -5.00  11.00  81.00  78.00  100.00
111.00   -7.00  11.00  81.00  10.00   38.00
112.00   -9.00  11.00  81.00  54.00   80.00
113.00  -11.00  11.00  81.00  16.00   32.00
114.00  -11.00   9.00  81.00 173.00  188.00
115.00  -11.00   7.00  81.00 161.00  187.00
116.00  -11.00   5.00  81.00 142.00  159.00
117.00  -11.00   3.00  81.00 138.00  164.00
118.00  -11.00   1.00  81.00  10.00   39.00
119.00  -11.00  -1.00  81.00  64.00   80.00
120.00  -11.00  -3.00  81.00  21.00   44.00
121.00  -11.00  -5.00  81.00 103.00  122.00
122.00  -11.00  -7.00  81.00 148.00  164.00
123.00  -11.00  -9.00  81.00 124.00  141.00
124.00  -11.00 -11.00  81.00  24.00   45.00
125.00   -9.00 -11.00  81.00 149.00  168.00
126.00   -7.00 -11.00  81.00  85.00  114.00
127.00   -5.00 -11.00  81.00  67.00   97.00
128.00   -3.00 -11.00  81.00   5.00   31.00
129.00   -1.00 -11.00  81.00 137.00  159.00
130.00    1.00 -11.00  81.00  77.00   95.00
131.00    3.00 -11.00  81.00 110.00  129.00
132.00    5.00 -11.00  81.00 163.00  184.00
133.00    7.00 -11.00  81.00 162.00  191.00
134.00    9.00 -11.00  81.00 165.00  183.00
135.00   11.00 -11.00  81.00  88.00  109.00
136.00   11.00  -9.00  81.00 125.00  147.00
137.00   11.00  -7.00  81.00  89.00  117.00
138.00   11.00  -5.00  81.00  59.00   87.00
139.00   11.00  -3.00  81.00  67.00   90.00
140.00   11.00  -1.00  81.00  85.00  106.00
141.00   13.00   1.00  69.00  82.00  109.00
142.00   13.00   3.00  69.00  44.00   69.00
143.00   13.00   5.00  69.00  38.00   60.00
144.00   13.00   7.00  69.00  26.00   52.00
145.00   13.00   9.00  69.00  79.00  105.00
146.00   13.00  11.00  69.00  19.00   37.00
147.00   13.00  13.00  69.00 140.00  158.00
148.00   11.00  13.00  69.00 183.00  203.00
149.00    9.00  13.00  69.00  79.00  100.00
150.00    7.00  13.00  69.00 177.00  194.00
151.00    5.00  13.00  69.00 130.00  157.00
152.00    3.00  13.00  69.00 169.00  186.00
153.00    1.00  13.00  69.00  87.00  107.00
154.00   -1.00  13.00  69.00  29.00   58.00
155.00   -3.00  13.00  69.00 172.00  200.00
156.00   -5.00  13.00  69.00 152.00  179.00
157.00   -7.00  13.00  69.00 160.00  183.00
158.00   -9.00  13.00  69.00 200.00  225.00
159.00  -11.00  13.00  69.00 181.00  210.00
160.00  -13.00  13.00  69.00 205.00  220.00
161.00  -13.00  11.00  69.00  96.00  115.00
162.00  -13.00   9.00  69.00 108.00  124.00
163.00  -13.00   7.00  69.00 125.00  153.00
164.00  -13.00   5.00  69.00  51.00   79.00
165.00  -13.00   3.00  69.00 143.00  162.00
166.00  -13.00   1.00  69.00  74.00  104.00
167.00  -13.00  -1.00  69.00 151.00  167.00
168.00  -13.00  -3.00  69.00  68.00   84.00
169.00  -13.00  -5.00  69.00  46.00   72.00
170.00  -13.00  -7.00  69.00  86.00  106.00
171.00  -13.00  -9.00  69.00 134.00  158.00
172.00  -13.00 -11.00  69.00 105.00  124.00
173.00  -13.00 -13.00  69.00 122.00  150.00
174.00  -11.00 -13.00  69.00  60.00   87.00
175.00   -9.00 -13.00  69.00  33.00   51.00
176.00   -7.00 -13.00  69.00 179.00  203.00
177.00   -5.00 -13.00  69.00 172.00  201.00
178.00   -3.00 -13.00  69.00 183.00  206.00
179.00   -1.00 -13.00  69.00  84.00  104.00
180.00    1.00 -13.00  69.00 144.00  160.00
181.00    3.00 -13.00  69.00  96.00  120.00
182.00    5.00 -13.00  69.00 157.00  183.00
183.00    7.00 -13.00  69.00  72.00   97.00
184.00    9.00 -13.00  69.00 128.00  148.00
185.00   11.00 -13.00  69.00 127.00  155.00
186.00   13.00 -13.00  69.00 174.00  202.00
187.00   13.00 -11.00  69.00 144.00  161.00
188.00   13.00  -9.00  69.00  56.00   85.00
189.00   13.00  -7.00  69.00   7.00   34.00
190.00   13.00  -5.00  69.00 164.00  194.00
191.00   13.00  -3.00  69.00  72.00   95.00
192.00   13.00  -1.00  69.00  38.00   58.00
193.00   15.00   1.00  60.00 120.00  141.00
194.00   15.00   3.00  60.00  52.00   76.00
195.00   15.00   5.00  60.00  94.00  120.00
196.00   15.00   7.00  60.00  68.00   91.00
197.00   15.00   9.00  60.00 152.00  180.00
198.00   15.00  11.00  60.00 122.00  146.00
199.00   15.00  13.00  60.00 102.00  120.00
200.00   15.00  15.00  60.00  55.00   84.00
201.00   13.00  15.00  60.00  39.00   69.00
202.00   11.00  15.00  60.00  36.00   58.00
203.00    9.00  15.00  60.00 101.00  127.00
204.00    7.00  15.00  60.00  86.00  101.00
205.00    5.00  15.00  60.00  91.00  120.00
206.00    3.00  15.00  60.00 114.00  132.00
207.00    1.00  15.00  60.00  51.00   76.00
208.00   -1.00  15.00  60.00   5.00   31.00
209.00   -3.00  15.00  60.00  53.00   79.00
210.00   -5.00  15.00  60.00  31.00   61.00
211.00   -7.00  15.00  60.00 208.00  223.00
212.00   -9.00  15.00  60.00 177.00  204.00
213.00  -11.00  15.00  60.00 197.00  214.00
214.00  -13.00  15.00  60.00 116.00  146.00
215.00  -15.00  15.00  60.00 196.00  226.00
216.00  -15.00  13.00  60.00 160.00  183.00
217.00  -15.00  11.00  60.00  69.00   88.00
218.00  -15.00   9.00  60.00  93.00  122.00
219.00  -15.00   7.00  60.00  63.00   85.00
220.00  -15.00   5.00  60.00  81.00   99.00
221.00  -15.00   3.00  60.00 146.00  167.00
222.00  -15.00   1.00  60.00 102.00  124.00
223.00  -15.00  -1.00  60.00 116.00  141.00
224.00  -15.00  -3.00  60.00 142.00  159.00
225.00  -15.00  -5.00  60.00  92.00  122.00
226.00  -15.00  -7.00  60.00   7.00   35.00
227.00  -15.00  -9.00  60.00 138.00  154.00
228.00  -15.00 -11.00  60.00  94.00  123.00
229.00  -15.00 -13.00  60.00 140.00  161.00
230.00  -15.00 -15.00  60.00 148.00  177.00
231.00  -13.00 -15.00  60.00 202.00  222.00
232.00  -11.00 -15.00  60.00 108.00  131.00
233.00   -9.00 -15.00  60.00  36.00   55.00
234.00   -7.00 -15.00  60.00 167.00  187.00
235.00   -5.00 -15.00  60.00 159.00  182.00
236.00   -3.00 -15.00  60.00  79.00   99.00
237.00   -1.00 -15.00  60.00 176.00  195.00
238.00    1.00 -15.00  60.00   8.00   35.00
239.00    3.00 -15.00  60.00  26.00   55.00
240.00    5.00 -15.00  60.00  50.00   75.00
241.00    7.00 -15.00  60.00 125.00  145.00
242.00    9.00 -15.00  60.00 179.00  206.00
243.00   11.00 -15.00  60.00 142.00  166.00
244.00   13.00 -15.00  60.00 146.00  162.00
245.00   15.00 -15.00  60.00 208.00  223.00
246.00   15.00 -13.00  60.00  47.00   74.00
247.00   15.00 -11.00  60.00 112.00  130.00
248.00   15.00  -9.00  60.00 181.00  200.00
249.00   15.00  -7.00  60.00 153.00  175.00
250.00   15.00  -5.00  60.00 165.00  187.00
251.00   15.00  -3.00  60.00  57.00   83.00
252.00   15.00  -1.00  60.00 186.00  208.00
Node - number of items - h - w for each item
    0   0
    1   3    7   11   10    5   30    3
    2   3   26    3   16    3   27    2
    3   2    4   10    6    7
    4   1   16    6
    5   2    4   12   30    2
    6   3   11    7   15    3   13    3
    7   2    8    5   14    2
    8   2    7    9   18    2
    9   2    6   10   12    3
   10   1   21    2
   11   3    6   12    6   12   10    6
   12   1   12    8
   13   2   14    3   12    3
   14   3   18    4   30    3   18    3
   15   1    7   14
   16   2    8   12   13    2
   17   1   18    3
   18   3    6   16    5    7   30    3
   19   2   12    8   30    3
   20   1    9    7
   21   1    7    9
   22   3    7   11   12    7   27    3
   23   1   13    2
   24   1    9    8
   25   2    7   13    6   13
   26   2    6    7   15    3
   27   3    7   11   14    5   28    3
   28   2    5   16   15    3
   29   3    7   16   24    4   22    3
   30   3    5   15    5    7   15    3
   31   2    5   14   11    6
   32   2    6    9   19    2
   33   3    6   11    4   11    6    6
   34   1   24    3
   35   2    5   16   15    5
   36   3    5   16    5    7   14    2
   37   2    5    8   15    6
   38   2   18    4   19    2
   39   1   25    4
   40   2    6    9   17    3
   41   1   19    3
   42   2   13    8   12    7
   43   3    8   14    5    9   11    7
   44   3    5   13    5    6   13    3
   45   2    5   11    7    8
   46   2    6   16    7    8
   47   3   12    6    9    5   25    2
   48   2   11    7   25    2
   49   3   14    6   18    4   23    3
   50   1   25    4
   51   3    5   14    6   10   23    2
   52   1   30    4
   53   1   12    6
   54   1    9    5
   55   2   10    7    8    7
   56   1   17    3
   57   3    7   13    7   12    8    7
   58   2   13    7   21    3
   59   3    5   14    6   12    8    8
   60   2    8   14   12    4
   61   2    4   12   16    6
   62   1    8   12
   63   1   12    7
   64   3    8   10   16    4   23    3
   65   3    7   10    7    7   19    3
   66   2    8    7   25    4
   67   2    7   14   13    4
   68   3    4   11   10    8    8    6
   69   1    9    7
   70   3    5   14    9    5   17    4
   71   2    5   13   22    2
   72   2    6   11   21    3
   73   1   13    8
   74   1   17    3
   75   2   27    3   25    2
   76   3   12    6    5    6   18    4
   77   3    7   13    5    8   12    6
   78   1   20    3
   79   3    9    7   26    2   19    2
   80   1   11    5
   81   2    7   14    8    5
   82   1   21    2
   83   2    7   16   13    2
   84   1   14    6
   85   2    8    6   20    4
   86   1   11    7
   87   2   19    4   13    4
   88   3    8   10   15    7   13    3
   89   1   16    6
   90   1   12    7
   91   2   14    6   22    3
   92   3    6   16   10    7   24    2
   93   1    4   16
   94   2    6   12   13    4
   95   1   26    4
   96   3   12    5   30    4   21    3
   97   2   14    4   28    2
   98   2   13    7   12    3
   99   1   12    8
  100   3    6   11   14    7   22    3
  101   3    5    9    4    9   13    5
  102   3    5   12    4    8   19    4
  103   2   15    8   12    3
  104   3    7   13    5    8   18    3
  105   2   11    6   12    3
  106   2    8   13   10    5
  107   2    5   14    5    9
  108   3    6   16    8   14    8   10
  109   3    6   16   15    6   14    5
  110   1    5   12
  111   3    5   14   15    7   27    4
  112   1   23    3
  113   2   24    3   14    3
  114   3    5   11    7   10   22    3
  115   1    4   10
  116   2    5   15   14    3
  117   1   24    3
  118   3    7   11    5    9   10    5
  119   3    8   12   15    8   26    2
  120   1    8   14
  121   3    4    9   20    4   24    3
  122   3    8   14    6    7   25    3
  123   2   29    3   30    2
  124   2    8   11    7    7
  125   1   31    4
  126   2    9    6   19    2
  127   1    4    9
  128   2   14    5   16    3
  129   2    4   15   16    5
  130   1   13    7
  131   2    5   16   11    8
  132   1    8   10
  133   1    5   14
  134   3    6   16   20    3   15    2
  135   1    5    7
  136   2   11    8   10    8
  137   3    6   16   15    8    9    5
  138   3    8   15    7    9   15    5
  139   3    4   12    7   10   11    5
  140   3    4   15   28    4   17    4
  141   3   23    4   22    3   21    3
  142   2   12    8   15    6
  143   1   10    5
  144   3    6   15    8   11   12    3
  145   1   21    2
  146   2    7   11    7    9
  147   1    6   10
  148   2    6   13    8    8
  149   2    6   12   12    5
  150   2   14    4   12    2
  151   3    6    8    8    7   27    2
  152   3    5    9   13    7   12    7
  153   1   12    8
  154   1    8    6
  155   2    8    8   32    3
  156   2    5   12   12    5
  157   2   16    3   16    2
  158   3   11    7   11    7    9    4
  159   2    4    8   14    4
  160   3    6   13    5    6   27    4
  161   2   13    4   13    3
  162   3   10    7   15    4   27    3
  163   3    6   11    7    8   31    3
  164   3    5   13   12    7   14    5
  165   1   14    3
  166   2    4   11   27    3
  167   3   11    8   11    6   14    2
  168   2   15    8    5    6
  169   3    6    9   12    6   19    4
  170   3    4    6   32    3   27    3
  171   2    9    7   28    3
  172   3    5    6   31    3   30    3
  173   2    7   10   20    4
  174   1   13    7
  175   2    5   14    6    9
  176   1   28    3
  177   3    9    8    9    7   26    4
  178   2    8   13   31    2
  179   1   23    2
  180   2    9    6   14    5
  181   3    7    9   14    5   14    3
  182   1   22    2
  183   3    4    7   14    6   31    2
  184   2    5   16   26    3
  185   2    5   14   14    7
  186   3    5   12   13    7   13    3
  187   1   12    7
  188   2    6   14   20    3
  189   2   10    4   16    3
  190   3    5    9   14    7   21    2
  191   3    6   11    6    7   16    4
  192   2    6    8   15    3
  193   1   30    3
  194   1   11    8
  195   2    7    9   16    2
  196   1   28    2
  197   3    8    8   14    4   17    3
  198   3    5    8   21    4   13    4
  199   1    5    9
  200   1   17    3
  201   3    8    5   24    4   14    4
  202   2    6   14   10    8
  203   1    6    6
  204   3    8    6   15    4   22    2
  205   2    6   12    7   10
  206   2    8   14    6    8
  207   1   15    6
  208   2    4   16    8    8
  209   3    6    9   16    7    7    7
  210   3   11    7    7    6   27    4
  211   2    5   16   15    6
  212   1   16    7
  213   1    6   14
  214   3    5   13   14    6   19    2
  215   1    8   10
  216   1   24    4
  217   2    5   11    8    4
  218   2    4    9   21    2
  219   2   12    5   13    2
  220   1   20    3
  221   2   11    5   26    3
  222   1    7    9
  223   1   25    3
  224   2    5   13   25    2
  225   3    5   16   13    8   25    3
  226   3    5   12   25    3   13    3
  227   3    4   10   29    3   14    3
  228   2    6   12    8    4
  229   3    4   15    7   10   18    4
  230   1   28    3
  231   3   13    6   24    3   20    3
  232   1   15    4
  233   3    7   12    7   10   12    5
  234   2    7   13   15    5
  235   1   15    3
  236   3    7   11   10    5   14    4
  237   1    6    9
  238   3    6   15    7   12   14    3
  239   2   18    3   21    2
  240   2   11    6   26    4
  241   1    7   12
  242   2    6   16   11    7
  243   1    7   11
  244   2    6   13    6   12
  245   1   13    3
  246   2   11    6   17    2
  247   1    6   16
  248   2    6   11   29    2
  249   1    9    5
  250   2    6   14    5   11
  251   2    9    8   32    3
  252   2    5   13   11    5
   
   
